Optimal - objective value -65.30900000
      2 squad[3]                                   1                       0
      3 squad[4]                                   1                       0
     14 squad[17]                                  1                       0
     40 squad[44]                                  1                       0
     52 squad[56]                                  1                       0
     93 squad[91]                                  1                       0
    101 squad[99]                                  1                       0
    142 squad[138]                                 1                       0
    179 squad[171]                                 1                       0
    190 squad[182]                                 1                       0
    307 squad[583]                                 1                       0
    358 squad[328]                                 1                       0
    436 squad[401]                                 1                       0
    470 squad[433]                                 1                       0
    590 squad[536]                                 1                       0
    623 lineup[3]                                  1                   -4.26
    624 lineup[4]                                  1                    -5.5
    635 lineup[17]                                 1                   -6.79
    661 lineup[44]                                 1                   -3.58
    714 lineup[91]                                 1                   -3.74
    722 lineup[99]                                 1                   -6.01
    800 lineup[171]                                1                    -3.7
    811 lineup[182]                                1                   -7.04
    979 lineup[328]                                1                   -6.07
   1057 lineup[401]                                1                   -5.88
   1091 lineup[433]                                1                   -5.02
   1432 captain[182]                               1                   -7.04
   1877 vicecap[17]                                1                  -0.679
